DIMENSION: 18
EDGE_WEIGHT_TYPE: EXPLICIT
EDGE_WEIGHT_FORMAT: FULL_MATRIX
EDGE_WEIGHT_SECTION:
32767 32767 32767 93 32767 32767 94 32767 90 77 32767 32767 14 99 80 32767 32767 94 
32767 32767 32767 75 61 32767 32767 11 32767 32767 6 32767 32767 39 44 32767 32767 32767 
32767 32767 32767 32767 85 32767 90 32767 32767 53 32767 32767 32767 32767 10 32767 93 32767 
93 75 32767 32767 98 32767 65 32767 32767 32767 73 32767 32767 32767 32767 32767 32767 11 
32767 61 85 98 32767 5 100 83 32767 44 31 65 32767 32767 85 32767 32767 32767 
32767 32767 32767 32767 5 32767 16 6 32767 32767 32767 32767 32767 32767 32767 32767 98 32767 
94 32767 90 65 100 16 32767 32767 32767 96 32767 26 60 32767 32767 79 32767 32767 
32767 11 32767 32767 83 6 32767 32767 32767 32767 32767 32767 32767 32767 32767 32767 32767 10 
90 32767 32767 32767 32767 32767 32767 32767 32767 32767 32767 32767 32767 32767 26 32767 32767 32767 
77 32767 53 32767 44 32767 96 32767 32767 32767 32767 32767 32767 32767 11 97 5 32767 
32767 6 32767 73 31 32767 32767 32767 32767 32767 32767 32767 32767 32767 32767 70 32767 32767 
32767 32767 32767 32767 65 32767 26 32767 32767 32767 32767 32767 32767 10 65 32767 32767 78 
14 32767 32767 32767 32767 32767 60 32767 32767 32767 32767 32767 32767 32767 30 32767 45 14 
99 39 32767 32767 32767 32767 32767 32767 32767 32767 32767 10 32767 32767 34 67 56 32767 
80 44 10 32767 85 32767 32767 32767 26 11 32767 65 30 34 32767 32767 32767 77 
32767 32767 32767 32767 32767 32767 79 32767 32767 97 70 32767 32767 67 32767 32767 44 32767 
32767 32767 93 32767 32767 98 32767 32767 32767 5 32767 32767 45 56 32767 44 32767 32767 
94 32767 32767 11 32767 32767 32767 10 32767 32767 32767 78 14 32767 77 32767 32767 32767 
EOF